103 6
10 10 10 10 10 10
1 0 0 0 0 0 0 3 2 3 4
5 2 5 0 0 0 0 3 6 7 8
4 10 0 0 3 3 1 3 5 6 7
8 3 5 0 0 0 6 4 103 6 7 8
1 2 7 0 5 8 0 4 9 10 11 12
7 0 0 5 0 0 0 3 9 11 12
1 0 5 0 9 0 9 4 9 10 11 12
6 0 0 0 0 0 6 4 9 10 11 12
4 0 10 0 0 6 6 3 13 15 16
1 1 6 0 0 5 9 4 13 14 15 16
6 0 0 4 3 0 6 3 13 15 16
1 7 0 8 8 1 0 3 14 15 16
4 4 0 0 0 9 0 4 17 18 19 20
10 4 1 5 6 6 10 4 17 18 19 20
4 0 8 9 0 0 0 3 17 18 19
6 4 7 10 5 3 3 3 17 18 19
8 0 0 10 9 0 2 3 22 23 24
10 0 10 3 5 4 0 4 21 22 23 24
9 0 4 0 7 0 1 3 22 23 24
8 0 6 0 0 0 3 3 22 23 24
6 0 4 0 1 5 0 3 25 26 28
3 0 0 10 2 0 9 3 25 27 28
10 0 2 5 10 5 10 4 25 26 27 28
7 1 0 0 2 10 3 2 25 28
4 5 0 4 0 0 5 3 29 31 32
9 3 2 0 9 5 0 4 29 30 31 32
3 6 0 0 0 0 0 3 29 31 32
1 0 5 2 3 0 8 3 29 31 32
9 7 0 0 0 0 5 4 33 34 35 36
9 0 4 8 6 6 0 4 33 34 35 36
7 0 2 0 3 0 3 4 33 34 35 36
5 4 0 0 0 5 0 4 33 34 35 36
10 6 0 0 0 5 0 2 38 39
7 0 0 0 0 1 0 2 39 40
3 0 4 0 7 6 9 2 38 40
10 2 0 6 0 6 0 3 37 38 39
7 3 10 0 0 2 0 3 41 42 43
2 3 8 4 3 0 0 4 41 42 43 44
9 0 0 0 8 0 0 3 41 42 43
4 6 0 10 0 6 0 4 41 42 43 44
10 5 3 0 0 0 0 2 45 46
6 9 10 0 7 0 10 4 45 46 47 48
10 0 2 0 1 0 0 2 45 46
10 10 0 0 0 0 9 3 45 46 47
1 7 8 3 0 3 9 2 49 52
7 0 0 4 0 6 0 3 49 50 52
5 0 0 3 0 5 4 3 49 50 52
10 4 0 0 0 6 0 4 49 50 51 52
9 3 3 0 7 0 0 4 53 54 55 56
3 4 0 0 0 7 0 4 53 54 55 56
10 0 7 4 0 0 7 4 53 54 55 56
2 1 3 0 0 5 0 4 53 54 55 56
8 8 10 0 0 2 0 3 57 58 60
4 9 0 8 6 0 4 4 57 58 59 60
5 2 6 0 8 5 9 4 57 58 59 60
10 9 0 0 0 0 7 3 57 58 59
7 5 0 0 0 0 0 3 62 63 64
10 0 0 0 7 0 1 3 61 63 64
1 10 0 4 0 5 9 3 62 63 64
8 0 0 3 0 0 0 4 61 62 63 64
10 5 10 7 7 4 10 3 66 67 68
10 0 3 0 0 0 0 3 66 67 68
2 9 0 0 4 4 1 4 65 66 67 68
4 7 0 0 0 9 6 3 66 67 68
3 5 9 6 0 9 0 3 69 70 72
8 0 0 0 0 0 0 4 69 70 71 72
8 0 0 6 10 0 8 3 69 70 71
2 0 0 0 0 0 10 4 69 70 71 72
7 8 0 6 0 6 8 2 73 74
1 0 3 6 6 4 1 3 74 75 76
4 3 9 5 0 8 6 3 73 74 76
3 0 7 0 0 6 6 3 73 74 76
5 9 1 0 10 6 0 3 77 79 80
7 0 5 0 10 0 0 3 77 78 79
5 8 1 7 8 8 0 4 77 78 79 80
3 0 0 0 10 0 0 3 77 78 79
10 7 0 0 0 10 0 3 81 82 84
9 0 0 0 0 1 0 4 81 82 83 84
6 0 0 0 0 0 0 4 81 82 83 84
6 0 0 5 2 0 3 4 81 82 83 84
8 2 10 9 0 0 5 2 86 88
2 0 6 8 0 8 0 3 85 86 88
8 4 0 0 1 0 6 4 85 86 87 88
9 0 0 0 8 0 1 3 85 87 88
4 8 0 0 6 10 0 2 89 90
1 4 0 0 0 2 0 3 89 90 92
2 4 10 0 6 1 5 4 89 90 91 92
6 0 7 0 0 0 6 2 89 90
9 10 9 10 3 8 0 2 94 96
2 6 0 8 7 3 10 4 93 94 95 96
8 6 0 0 0 0 0 3 94 95 96
6 0 6 5 1 4 0 4 93 94 95 96
9 0 10 0 0 7 0 4 97 98 99 100
7 4 0 4 0 0 1 3 97 98 99
1 0 0 7 9 8 0 3 98 99 100
5 0 1 0 5 0 0 4 97 98 99 100
4 7 9 0 9 0 3 1 102
6 0 3 2 0 2 3 1 101
9 0 0 0 2 2 8 1 101
10 0 4 4 6 0 0 2 101 102
2 0 0 0 1 0 6 1 103
6 1 10 8 0 1 8 1 103
0 0 0 0 0 0 0 0
